
Gurobi 11.0.0 (win64, C++) logging started Tue Jul 29 13:09:31 2025

Set parameter TokenServer to value "141.76.38.119"
### START HEURISTIC APPROACH APPROACH ###
ProblemVariant: 1
### START PREPROCESSING ###
## Start start solution procedure ##
Start solution with 8 Vehicles and total costs 863.256 in 12.7113 s.
### END PREPROCESSING ###
Route 0 0-18-0 : weight util 0.033333 | volume util 0.292667 | infeasible with packing heuristic | feasible with CP model
Route 1 0-29-27-28-26-0 : weight util 0.344444 | volume util 0.581244 | infeasible with packing heuristic | feasible with CP model
Route 2 0-11-17-7-13-16-15-0 : weight util 0.455556 | volume util 0.690222 | infeasible with packing heuristic | feasible with CP model
Route 3 0-20-22-21-14-8-23-0 : weight util 0.622222 | volume util 0.670222 | infeasible with packing heuristic | feasible with CP model
Route 4 0-3-6-24-25-19-0 : weight util 0.438889 | volume util 0.624778 | infeasible with packing heuristic | feasible with CP model
Route 5 0-9-12-10-0 : weight util 0.116667 | volume util 0.604933 | infeasible with packing heuristic | feasible with CP model
Route 6 0-2-5-1-4-0 : weight util 0.822222 | volume util 0.555689 | infeasible with packing heuristic | feasible with CP model
